30
0 1 0.4 0.17
0 2 0.35 0.17
0 3 0.82 0.32
0 4 0.5 0.37
0 5 0.74 0.32
0 6 0.64 0.2
0 7 0.48 0.26
0 8 0.46 0.22
0 9 0.52 0.24
0 10 0.6 0.24
0 11 0.75 0.18
0 12 0.73 0.32
0 13 0.53 0.16
0 14 0.84 0.12
0 15 0.6 0.3
0 16 0.66 0.26
0 17 0.48 0.32
0 18 0.45 0.12
0 19 0.54 0.28
0 20 0.63 0.26
0 21 0.48 0.1
0 22 0.53 0.23
0 23 0.74 0.28
0 24 0.7 0.16
0 25 0.58 0.25
0 26 0.42 0.34
0 27 0.77 0.2
0 28 0.53 0.16
0 29 0.57 0.22
1 2 0.75 0.34
1 3 0.56 0.3
1 4 0.88 0.26
1 5 0.76 0.34
1 6 0.6 0.31
1 7 0.63 0.19
1 8 0.5 0.23
1 9 0.58 0.41
1 10 0.92 0.39
1 11 0.35 0.28
1 12 0.68 0.35
1 13 0.46 0.33
1 14 0.76 0.29
1 15 0.6 0.41
1 16 0.74 0.41
1 17 0.56 0.25
1 18 0.54 0.29
1 19 0.57 0.25
1 20 0.42 0.37
1 21 0.68 0.27
1 22 0.58 0.4
1 23 0.37 0.23
1 24 0.68 0.33
1 25 0.84 0.42
1 26 0.77 0.4
1 27 0.53 0.37
1 28 0.76 0.33
1 29 0.65 0.39
2 3 0.74 0.4
2 4 0.76 0.42
2 5 0.6 0.4
2 6 0.88 0.32
2 7 0.81 0.28
2 8 0.76 0.32
2 9 0.82 0.4
2 10 0.42 0.16
2 11 0.74 0.34
2 12 0.48 0.26
2 13 0.54 0.3
2 14 0.57 0.28
2 15 0.52 0.33
2 16 0.42 0.18
2 17 0.36 0.28
2 18 0.52 0.29
2 19 0.5 0.44
2 20 0.66 0.37
2 21 0.53 0.27
2 22 0.44 0.32
2 23 0.56 0.24
2 24 0.55 0.3
2 25 0.7 0.22
2 26 0.53 0.4
2 27 0.42 0.26
2 28 0.6 0.32
2 29 0.44 0.29
3 4 0.42 0.29
3 5 0.42 0.19
3 6 0.86 0.14
3 7 0.62 0.18
3 8 0.47 0.22
3 9 0.62 0.14
3 10 0.64 0.29
3 11 0.66 0.28
3 12 0.62 0.26
3 13 0.7 0.24
3 14 0.53 0.26
3 15 0.5 0.12
3 16 0.68 0.3
3 17 0.52 0.12
3 18 0.66 0.2
3 19 0.6 0.35
3 20 0.78 0.08
3 21 0.54 0.28
3 22 0.3 0.2
3 23 0.76 0.22
3 24 0.38 0.27
3 25 0.48 0.26
3 26 0.72 0.28
3 27 0.49 0.31
3 28 0.4 0.22
3 29 0.75 0.35
4 5 0.72 0.31
4 6 0.76 0.32
4 7 0.7 0.28
4 8 0.75 0.32
4 9 0.54 0.32
4 10 0.46 0.28
4 11 0.64 0.31
4 12 0.54 0.37
4 13 0.52 0.28
4 14 0.64 0.25
4 15 0.78 0.24
4 16 0.83 0.3
4 17 0.45 0.34
4 18 0.66 0.32
4 19 0.64 0.41
4 20 0.62 0.26
4 21 0.5 0.42
4 22 0.72 0.14
4 23 0.7 0.32
4 24 0.54 0.21
4 25 0.68 0.34
4 26 0.68 0.44
4 27 0.78 0.25
4 28 0.49 0.26
4 29 0.46 0.43
5 6 0.82 0.12
5 7 0.58 0.24
5 8 0.32 0.21
5 9 0.75 0.12
5 10 0.4 0.24
5 11 0.56 0.3
5 12 0.82 0.21
5 13 0.64 0.36
5 14 0.74 0.24
5 15 0.36 0.07
5 16 0.6 0.26
5 17 0.51 0.2
5 18 0.74 0.32
5 19 0.72 0.16
5 20 0.78 0.11
5 21 0.73 0.22
5 22 0.56 0.17
5 23 0.8 0.2
5 24 0.48 0.22
5 25 0.42 0.22
5 26 0.64 0.29
5 27 0.68 0.26
5 28 0.58 0.2
5 29 0.82 0.33
6 7 0.69 0.12
6 8 0.88 0.16
6 9 0.59 0.12
6 10 0.54 0.24
6 11 0.76 0.27
6 12 0.42 0.24
6 13 0.59 0.34
6 14 0.72 0.24
6 15 0.46 0.1
6 16 0.71 0.26
6 17 0.81 0.18
6 18 0.64 0.32
6 19 0.61 0.28
6 20 0.82 0.06
6 21 0.37 0.14
6 22 0.66 0.18
6 23 0.43 0.08
6 24 0.62 0.23
6 25 0.66 0.3
6 26 0.59 0.25
6 27 0.71 0.27
6 28 0.63 0.2
6 29 0.92 0.32
7 8 0.47 0.04
7 9 0.5 0.22
7 10 0.62 0.2
7 11 0.56 0.19
7 12 0.64 0.16
7 13 0.74 0.22
7 14 0.38 0.18
7 15 0.72 0.22
7 16 0.63 0.22
7 17 0.5 0.06
7 18 0.52 0.26
7 19 0.44 0.34
7 20 0.67 0.18
7 21 0.65 0.16
7 22 0.73 0.27
7 23 0.26 0.04
7 24 0.68 0.2
7 25 0.8 0.24
7 26 0.54 0.21
7 27 0.6 0.22
7 28 0.26 0.14
7 29 0.68 0.29
8 9 0.86 0.18
8 10 0.72 0.24
8 11 0.7 0.2
8 12 0.71 0.12
8 13 0.6 0.18
8 14 0.55 0.14
8 15 0.68 0.26
8 16 0.42 0.24
8 17 0.42 0.1
8 18 0.57 0.22
8 19 0.54 0.3
8 20 0.47 0.22
8 21 0.82 0.12
8 22 0.56 0.25
8 23 0.66 0.08
8 24 0.48 0.18
8 25 0.67 0.2
8 26 0.7 0.25
8 27 0.36 0.2
8 28 0.26 0.1
8 29 0.83 0.3
9 10 0.44 0.24
9 11 0.74 0.18
9 12 0.44 0.24
9 13 0.61 0.24
9 14 0.34 0.12
9 15 0.77 0.1
9 16 0.73 0.22
9 17 0.74 0.26
9 18 0.52 0.2
9 19 0.9 0.28
9 20 0.7 0.06
9 21 0.39 0.18
9 22 0.76 0.18
9 23 0.42 0.2
9 24 0.46 0.16
9 25 0.62 0.18
9 26 0.76 0.26
9 27 0.7 0.17
9 28 0.62 0.08
9 29 0.76 0.35
10 11 0.74 0.18
10 12 0.72 0.14
10 13 0.62 0.14
10 14 0.68 0.12
10 15 0.58 0.17
10 16 0.45 0.02
10 17 0.7 0.26
10 18 0.66 0.18
10 19 0.88 0.28
10 20 0.76 0.21
10 21 0.83 0.28
10 22 0.75 0.23
10 23 0.78 0.16
10 24 0.7 0.16
10 25 0.72 0.06
10 26 0.52 0.33
10 27 0.57 0.2
10 28 0.88 0.16
10 29 0.68 0.26
11 12 0.65 0.32
11 13 0.49 0.32
11 14 0.44 0.06
11 15 0.63 0.27
11 16 0.47 0.2
11 17 0.38 0.16
11 18 0.38 0.3
11 19 0.84 0.22
11 20 0.77 0.24
11 21 0.71 0.28
11 22 0.44 0.17
11 23 0.72 0.19
11 24 0.72 0.1
11 25 0.49 0.2
11 26 0.76 0.28
11 27 0.74 0.14
11 28 0.44 0.1
11 29 0.44 0.29
12 13 0.6 0.23
12 14 0.78 0.26
12 15 0.46 0.14
12 16 0.29 0.16
12 17 0.39 0.22
12 18 0.69 0.24
12 19 0.81 0.37
12 20 0.55 0.18
12 21 0.68 0.24
12 22 0.42 0.24
12 23 0.64 0.2
12 24 0.72 0.3
12 25 0.61 0.2
12 26 0.56 0.27
12 27 0.44 0.32
12 28 0.63 0.22
12 29 0.76 0.4
13 14 0.36 0.26
13 15 0.6 0.31
13 16 0.68 0.16
13 17 0.61 0.28
13 18 0.58 0.04
13 19 0.64 0.3
13 20 0.76 0.3
13 21 0.22 0.22
13 22 0.4 0.32
13 23 0.72 0.26
13 24 0.63 0.3
13 25 0.72 0.17
13 26 0.31 0.27
13 27 0.66 0.34
13 28 0.78 0.22
13 29 0.7 0.19
14 15 0.66 0.21
14 16 0.56 0.14
14 17 0.58 0.22
14 18 0.82 0.24
14 19 0.56 0.16
14 20 0.71 0.18
14 21 0.58 0.22
14 22 0.62 0.11
14 23 0.6 0.22
14 24 0.8 0.04
14 25 0.5 0.14
14 26 0.57 0.22
14 27 0.52 0.08
14 28 0.46 0.04
14 29 0.72 0.23
15 16 0.75 0.19
15 17 0.55 0.17
15 18 0.66 0.3
15 19 0.64 0.23
15 20 0.42 0.04
15 21 0.78 0.24
15 22 0.2 0.1
15 23 0.69 0.18
15 24 0.72 0.17
15 25 0.63 0.23
15 26 0.65 0.24
15 27 0.48 0.21
15 28 0.66 0.18
15 29 0.86 0.26
16 17 0.54 0.28
16 18 0.49 0.17
16 19 0.64 0.3
16 20 0.78 0.23
16 21 0.8 0.3
16 22 0.67 0.25
16 23 0.37 0.18
16 24 0.62 0.18
16 25 0.32 0.04
16 26 0.48 0.32
16 27 0.58 0.22
16 28 0.52 0.14
16 29 0.75 0.28
17 18 0.5 0.32
17 19 0.52 0.36
17 20 0.56 0.2
17 21 0.68 0.22
17 22 0.75 0.27
17 23 0.58 0.1
17 24 0.45 0.26
17 25 0.46 0.28
17 26 0.84 0.24
17 27 0.56 0.28
17 28 0.24 0.2
17 29 0.66 0.23
18 19 0.94 0.34
18 20 0.64 0.26
18 21 0.8 0.22
18 22 0.58 0.35
18 23 0.48 0.3
18 24 0.6 0.28
18 25 0.81 0.13
18 26 0.82 0.31
18 27 0.7 0.32
18 28 0.48 0.23
18 29 0.45 0.23
19 20 0.58 0.27
19 21 0.51 0.38
19 22 0.44 0.27
19 23 0.54 0.36
19 24 0.7 0.2
19 25 0.68 0.3
19 26 0.86 0.3
19 27 0.68 0.24
19 28 0.7 0.2
19 29 0.5 0.36
20 21 0.76 0.2
20 22 0.49 0.12
20 23 0.41 0.14
20 24 0.74 0.19
20 25 0.61 0.24
20 26 0.86 0.2
20 27 0.5 0.23
20 28 0.56 0.14
20 29 0.48 0.3
21 22 0.62 0.32
21 23 0.61 0.2
21 24 0.41 0.26
21 25 0.68 0.32
21 26 0.53 0.37
21 27 0.56 0.3
21 28 0.88 0.22
21 29 0.8 0.18
22 23 0.54 0.26
22 24 0.68 0.07
22 25 0.43 0.25
22 26 0.46 0.32
22 27 0.48 0.11
22 28 0.7 0.15
22 29 0.66 0.29
23 24 0.7 0.24
23 25 0.69 0.22
23 26 0.5 0.17
23 27 0.46 0.26
23 28 0.52 0.18
23 29 0.7 0.33
24 25 0.4 0.18
24 26 0.81 0.26
24 27 0.51 0.04
24 28 0.47 0.08
24 29 0.51 0.22
25 26 0.41 0.28
25 27 0.86 0.22
25 28 0.7 0.1
25 29 0.74 0.32
26 27 0.62 0.3
26 28 0.66 0.18
26 29 0.44 0.4
27 28 0.62 0.12
27 29 0.86 0.26
28 29 0.78 0.27
